instances/shortest_path/discrete_knapsack_uncertainty/nohadani_10_10.lp
\ Model nohadani_10_10
\ LP format - for model browsing. Use MPS format to capture full model detail.
\ Signature: 0x2a9039af97cbf6c6
Minimize
  31.40063693621516 y[0,1] + 56.61271941887264 y[0,2]
   + 22.47220505424423 y[0,3] + 6.324555320336759 y[0,4]
   + 71.69379331573968 y[0,8] + 31.40063693621516 y[1,0]
   + 31.76476034853718 y[1,2] + 20.80865204668481 y[1,3]
   + 33.01514803843835 y[1,4] + 49.49747468305833 y[1,5]
   + 55.46169849544819 y[1,6] + 57.24508712544684 y[1,7]
   + 41.88078318274385 y[1,8] + 56.43580423808985 y[1,9]
   + 56.61271941887264 y[2,0] + 31.76476034853718 y[2,1]
   + 52.4785670536077 y[2,3] + 55.07267925205745 y[2,4]
   + 39.96248240537617 y[2,5] + 35.22782990761707 y[2,6]
   + 61.07372593840988 y[2,7] + 20.6155281280883 y[2,8]
   + 24.69817807045694 y[2,9] + 22.47220505424423 y[3,0]
   + 20.80865204668481 y[3,1] + 52.4785670536077 y[3,2]
   + 27.65863337187866 y[3,4] + 65.55150646628954 y[3,5]
   + 74.33034373659252 y[3,6] + 66.03029607687671 y[3,7]
   + 61.71709649683789 y[3,8] + 6.324555320336759 y[4,0]
   + 33.01514803843835 y[4,1] + 55.07267925205745 y[4,2]
   + 27.65863337187866 y[4,3] + 71.47027354082255 y[4,8]
   + 49.49747468305833 y[5,1] + 39.96248240537617 y[5,2]
   + 65.55150646628954 y[5,3] + 17.0293863659264 y[5,6]
   + 26.47640458974745 y[5,7] + 21.2602916254693 y[5,8]
   + 46.95742752749558 y[5,9] + 55.46169849544819 y[6,1]
   + 35.22782990761707 y[6,2] + 74.33034373659252 y[6,3]
   + 17.0293863659264 y[6,5] + 43.18564576337837 y[6,7]
   + 15.03329637837291 y[6,8] + 33.30165161069343 y[6,9]
   + 57.24508712544684 y[7,1] + 61.07372593840988 y[7,2]
   + 66.03029607687671 y[7,3] + 26.47640458974745 y[7,5]
   + 43.18564576337837 y[7,6] + 46.09772228646444 y[7,8]
   + 72.80109889280519 y[7,9] + 71.69379331573968 y[8,0]
   + 41.88078318274385 y[8,1] + 20.6155281280883 y[8,2]
   + 61.71709649683789 y[8,3] + 71.47027354082255 y[8,4]
   + 21.2602916254693 y[8,5] + 15.03329637837291 y[8,6]
   + 46.09772228646444 y[8,7] + 26.92582403567252 y[8,9]
   + 56.43580423808985 y[9,1] + 24.69817807045694 y[9,2]
   + 46.95742752749558 y[9,5] + 33.30165161069343 y[9,6]
   + 72.80109889280519 y[9,7] + 26.92582403567252 y[9,8] + x[0,1] + x[0,2]
   + x[0,3] + x[0,4] + x[0,8] + x[1,0] + x[1,2] + x[1,3] + x[1,4] + x[1,5]
   + x[1,6] + x[1,7] + x[1,8] + x[1,9] + x[2,0] + x[2,1] + x[2,3] + x[2,4]
   + x[2,5] + x[2,6] + x[2,7] + x[2,8] + x[2,9] + x[3,0] + x[3,1] + x[3,2]
   + x[3,4] + x[3,5] + x[3,6] + x[3,7] + x[3,8] + x[4,0] + x[4,1] + x[4,2]
   + x[4,3] + x[4,8] + x[5,1] + x[5,2] + x[5,3] + x[5,6] + x[5,7] + x[5,8]
   + x[5,9] + x[6,1] + x[6,2] + x[6,3] + x[6,5] + x[6,7] + x[6,8] + x[6,9]
   + x[7,1] + x[7,2] + x[7,3] + x[7,5] + x[7,6] + x[7,8] + x[7,9] + x[8,0]
   + x[8,1] + x[8,2] + x[8,3] + x[8,4] + x[8,5] + x[8,6] + x[8,7] + x[8,9]
   + x[9,1] + x[9,2] + x[9,5] + x[9,6] + x[9,7] + x[9,8]
   + 3.140063693621517 r[0,1] + 5.661271941887264 r[0,2]
   + 2.247220505424423 r[0,3] + 0.632455532033676 r[0,4]
   + 7.169379331573968 r[0,8] + 3.140063693621517 r[1,0]
   + 3.176476034853718 r[1,2] + 2.080865204668481 r[1,3]
   + 3.301514803843836 r[1,4] + 4.949747468305834 r[1,5]
   + 5.546169849544819 r[1,6] + 5.724508712544685 r[1,7]
   + 4.188078318274385 r[1,8] + 5.643580423808985 r[1,9]
   + 5.661271941887264 r[2,0] + 3.176476034853718 r[2,1]
   + 5.247856705360771 r[2,3] + 5.507267925205745 r[2,4]
   + 3.996248240537617 r[2,5] + 3.522782990761707 r[2,6]
   + 6.107372593840989 r[2,7] + 2.06155281280883 r[2,8]
   + 2.469817807045694 r[2,9] + 2.247220505424423 r[3,0]
   + 2.080865204668481 r[3,1] + 5.247856705360771 r[3,2]
   + 2.765863337187866 r[3,4] + 6.555150646628954 r[3,5]
   + 7.433034373659253 r[3,6] + 6.603029607687671 r[3,7]
   + 6.171709649683789 r[3,8] + 0.632455532033676 r[4,0]
   + 3.301514803843836 r[4,1] + 5.507267925205745 r[4,2]
   + 2.765863337187866 r[4,3] + 7.147027354082255 r[4,8]
   + 4.949747468305834 r[5,1] + 3.996248240537617 r[5,2]
   + 6.555150646628954 r[5,3] + 1.70293863659264 r[5,6]
   + 2.647640458974745 r[5,7] + 2.12602916254693 r[5,8]
   + 4.695742752749559 r[5,9] + 5.546169849544819 r[6,1]
   + 3.522782990761707 r[6,2] + 7.433034373659253 r[6,3]
   + 1.70293863659264 r[6,5] + 4.318564576337837 r[6,7]
   + 1.503329637837291 r[6,8] + 3.330165161069343 r[6,9]
   + 5.724508712544685 r[7,1] + 6.107372593840989 r[7,2]
   + 6.603029607687671 r[7,3] + 2.647640458974745 r[7,5]
   + 4.318564576337837 r[7,6] + 4.609772228646444 r[7,8]
   + 7.280109889280519 r[7,9] + 7.169379331573968 r[8,0]
   + 4.188078318274385 r[8,1] + 2.06155281280883 r[8,2]
   + 6.171709649683789 r[8,3] + 7.147027354082255 r[8,4]
   + 2.12602916254693 r[8,5] + 1.503329637837291 r[8,6]
   + 4.609772228646444 r[8,7] + 2.692582403567252 r[8,9]
   + 5.643580423808985 r[9,1] + 2.469817807045694 r[9,2]
   + 4.695742752749559 r[9,5] + 3.330165161069343 r[9,6]
   + 7.280109889280519 r[9,7] + 2.692582403567252 r[9,8]
Subject To
 flow_cons_inner_nodes[0]: - y[0,1] - y[0,2] - y[0,3] - y[0,4] - y[0,8]
   + y[1,0] + y[2,0] + y[3,0] + y[4,0] + y[8,0] = 0
 flow_cons_inner_nodes[1]: y[0,1] - y[1,0] - y[1,2] - y[1,3] - y[1,4]
   - y[1,5] - y[1,6] - y[1,7] - y[1,8] - y[1,9] + y[2,1] + y[3,1] + y[4,1]
   + y[5,1] + y[6,1] + y[7,1] + y[8,1] + y[9,1] = 0
 flow_cons_inner_nodes[2]: y[0,2] + y[1,2] - y[2,0] - y[2,1] - y[2,3]
   - y[2,4] - y[2,5] - y[2,6] - y[2,7] - y[2,8] - y[2,9] + y[3,2] + y[4,2]
   + y[5,2] + y[6,2] + y[7,2] + y[8,2] + y[9,2] = 0
 flow_cons_inner_nodes[3]: y[0,3] + y[1,3] + y[2,3] - y[3,0] - y[3,1]
   - y[3,2] - y[3,4] - y[3,5] - y[3,6] - y[3,7] - y[3,8] + y[4,3] + y[5,3]
   + y[6,3] + y[7,3] + y[8,3] = 0
 flow_cons_inner_nodes[5]: y[1,5] + y[2,5] + y[3,5] - y[5,1] - y[5,2]
   - y[5,3] - y[5,6] - y[5,7] - y[5,8] - y[5,9] + y[6,5] + y[7,5] + y[8,5]
   + y[9,5] = 0
 flow_cons_inner_nodes[6]: y[1,6] + y[2,6] + y[3,6] + y[5,6] - y[6,1]
   - y[6,2] - y[6,3] - y[6,5] - y[6,7] - y[6,8] - y[6,9] + y[7,6] + y[8,6]
   + y[9,6] = 0
 flow_cons_inner_nodes[8]: y[0,8] + y[1,8] + y[2,8] + y[3,8] + y[4,8]
   + y[5,8] + y[6,8] + y[7,8] - y[8,0] - y[8,1] - y[8,2] - y[8,3] - y[8,4]
   - y[8,5] - y[8,6] - y[8,7] - y[8,9] + y[9,8] = 0
 flow_cons_inner_nodes[9]: y[1,9] + y[2,9] + y[5,9] + y[6,9] + y[7,9]
   + y[8,9] - y[9,1] - y[9,2] - y[9,5] - y[9,6] - y[9,7] - y[9,8] = 0
 flow_cons_source: - y[0,4] - y[1,4] - y[2,4] - y[3,4] + y[4,0] + y[4,1]
   + y[4,2] + y[4,3] + y[4,8] - y[8,4] = 1
 flow_cons_target: y[1,7] + y[2,7] + y[3,7] + y[5,7] + y[6,7] - y[7,1]
   - y[7,2] - y[7,3] - y[7,5] - y[7,6] - y[7,8] - y[7,9] + y[8,7] + y[9,7]
   = 1
 primal_lower: 1.982667225065819 x[0,1] + 3.732450109458323 x[0,2]
   + 4.222697136478882 x[0,3] + 2.8315560672525 x[0,4]
   + 2.21239449764475 x[0,8] + 3.84453887175632 x[1,0]
   + 1.904371221646467 x[1,2] + 3.978173047799318 x[1,3]
   + 3.389330669608342 x[1,4] + 2.53760996687852 x[1,5]
   + 2.377082850491139 x[1,6] + 1.640727075776094 x[1,7]
   + 0.6407247369992066 x[1,8] + 0.6633056728835581 x[1,9]
   + 1.422868977300623 x[2,0] + 0.1754204043663697 x[2,1]
   + 3.01285053836804 x[2,3] + 2.840522668749169 x[2,4]
   + 4.230289836979703 x[2,5] + 0.5294980705414338 x[2,6]
   + 1.155882656822227 x[2,7] + 1.190694863836147 x[2,8]
   + 0.062999355082345 x[2,9] + 4.064624044269787 x[3,0]
   + 1.863308358168859 x[3,1] + 3.434055567425684 x[3,2]
   + 2.949243107098737 x[3,4] + 1.354723220992611 x[3,5]
   + 4.097323394648695 x[3,6] + 3.822613398190138 x[3,7]
   + 2.472593004785187 x[3,8] + 2.322063780525638 x[4,0]
   + 1.453777813343406 x[4,1] + 3.559135045212628 x[4,2]
   + 3.048409979446927 x[4,3] + 2.380274049734383 x[4,8]
   + 0.7355215141165827 x[5,1] + 0.1736215131234667 x[5,2]
   + 4.028209121851464 x[5,3] + 0.592342 x[5,6] + 0.1926328333946872 x[5,7]
   + 1.912658329258243 x[5,8] + 4.073804961399177 x[5,9]
   + 0.8709409231942434 x[6,1] + 1.476504067286603 x[6,2]
   + 3.06617836539484 x[6,3] + 3.03822443889436 x[6,5]
   + 3.489377904040913 x[6,7] + 1.362330990310426 x[6,8]
   + 2.702322834667496 x[6,9] + 3.91712531016296 x[7,1]
   + 0.8889714811113311 x[7,2] + 3.137443923715645 x[7,3]
   + 0.2954785881386906 x[7,5] + 0.3528339481131401 x[7,6]
   + 4.062745068577446 x[7,8] + 2.614071866220839 x[7,9]
   + 0.504313456682763 x[8,0] + 2.199791815386987 x[8,1]
   + 4.175982163995408 x[8,2] + 3.384645903779249 x[8,3]
   + 2.225568483845572 x[8,4] + 2.622476267088605 x[8,5]
   + 3.006006945189871 x[8,6] + 3.728894712873557 x[8,7]
   + 0.6731713823517499 x[8,9] + 3.716548284896475 x[9,1]
   + 2.11464752333883 x[9,2] + 1.567556511006051 x[9,5]
   + 0.1194512779483629 x[9,6] + 0.2313955325124417 x[9,7]
   + 2.465106505077307 x[9,8] + 36 u[0,1] + 97 u[0,2] + 39 u[0,3]
   + 68 u[0,4] + 45 u[0,8] + 66 u[1,0] + 50 u[1,2] + 36 u[1,3] + 94 u[1,4]
   + 19 u[1,5] + 48 u[1,6] + 72 u[1,7] + 17 u[1,8] + 17 u[1,9] + 29 u[2,0]
   + 37 u[2,1] + 98 u[2,3] + 25 u[2,4] + 10 u[2,5] + 55 u[2,6] + 46 u[2,7]
   + 24 u[2,8] + 29 u[2,9] + 3 u[3,0] + 49 u[3,1] + 5 u[3,2] + 31 u[3,4]
   + 80 u[3,5] + 58 u[3,6] + 80 u[3,7] + 50 u[3,8] + 80 u[4,0] + 52 u[4,1]
   + 46 u[4,2] + 61 u[4,3] + 34 u[4,8] + 37 u[5,1] + 69 u[5,2] + 97 u[5,3]
   + 27 u[5,6] + 44 u[5,7] + 14 u[5,8] + 99 u[5,9] + 54 u[6,1] + 12 u[6,2]
   + 75 u[6,3] + 18 u[6,5] + 46 u[6,7] + 56 u[6,8] + u[6,9] + 23 u[7,1]
   + 5 u[7,2] + 58 u[7,3] + 45 u[7,5] + 85 u[7,6] + 56 u[7,8] + 26 u[7,9]
   + 7 u[8,0] + 81 u[8,1] + 23 u[8,2] + 53 u[8,3] + 79 u[8,4] + 32 u[8,5]
   + 39 u[8,6] + 96 u[8,7] + 77 u[8,9] + 69 u[9,1] + 19 u[9,2] + 77 u[9,5]
   + 54 u[9,6] + 6 u[9,7] + 14 u[9,8] <= 305
 mccormick1[0,1]: - u[0,1] + r[0,1] <= 0
 mccormick1[0,2]: - u[0,2] + r[0,2] <= 0
 mccormick1[0,3]: - u[0,3] + r[0,3] <= 0
 mccormick1[0,4]: - u[0,4] + r[0,4] <= 0
 mccormick1[0,8]: - u[0,8] + r[0,8] <= 0
 mccormick1[1,0]: - u[1,0] + r[1,0] <= 0
 mccormick1[1,2]: - u[1,2] + r[1,2] <= 0
 mccormick1[1,3]: - u[1,3] + r[1,3] <= 0
 mccormick1[1,4]: - u[1,4] + r[1,4] <= 0
 mccormick1[1,5]: - u[1,5] + r[1,5] <= 0
 mccormick1[1,6]: - u[1,6] + r[1,6] <= 0
 mccormick1[1,7]: - u[1,7] + r[1,7] <= 0
 mccormick1[1,8]: - u[1,8] + r[1,8] <= 0
 mccormick1[1,9]: - u[1,9] + r[1,9] <= 0
 mccormick1[2,0]: - u[2,0] + r[2,0] <= 0
 mccormick1[2,1]: - u[2,1] + r[2,1] <= 0
 mccormick1[2,3]: - u[2,3] + r[2,3] <= 0
 mccormick1[2,4]: - u[2,4] + r[2,4] <= 0
 mccormick1[2,5]: - u[2,5] + r[2,5] <= 0
 mccormick1[2,6]: - u[2,6] + r[2,6] <= 0
 mccormick1[2,7]: - u[2,7] + r[2,7] <= 0
 mccormick1[2,8]: - u[2,8] + r[2,8] <= 0
 mccormick1[2,9]: - u[2,9] + r[2,9] <= 0
 mccormick1[3,0]: - u[3,0] + r[3,0] <= 0
 mccormick1[3,1]: - u[3,1] + r[3,1] <= 0
 mccormick1[3,2]: - u[3,2] + r[3,2] <= 0
 mccormick1[3,4]: - u[3,4] + r[3,4] <= 0
 mccormick1[3,5]: - u[3,5] + r[3,5] <= 0
 mccormick1[3,6]: - u[3,6] + r[3,6] <= 0
 mccormick1[3,7]: - u[3,7] + r[3,7] <= 0
 mccormick1[3,8]: - u[3,8] + r[3,8] <= 0
 mccormick1[4,0]: - u[4,0] + r[4,0] <= 0
 mccormick1[4,1]: - u[4,1] + r[4,1] <= 0
 mccormick1[4,2]: - u[4,2] + r[4,2] <= 0
 mccormick1[4,3]: - u[4,3] + r[4,3] <= 0
 mccormick1[4,8]: - u[4,8] + r[4,8] <= 0
 mccormick1[5,1]: - u[5,1] + r[5,1] <= 0
 mccormick1[5,2]: - u[5,2] + r[5,2] <= 0
 mccormick1[5,3]: - u[5,3] + r[5,3] <= 0
 mccormick1[5,6]: - u[5,6] + r[5,6] <= 0
 mccormick1[5,7]: - u[5,7] + r[5,7] <= 0
 mccormick1[5,8]: - u[5,8] + r[5,8] <= 0
 mccormick1[5,9]: - u[5,9] + r[5,9] <= 0
 mccormick1[6,1]: - u[6,1] + r[6,1] <= 0
 mccormick1[6,2]: - u[6,2] + r[6,2] <= 0
 mccormick1[6,3]: - u[6,3] + r[6,3] <= 0
 mccormick1[6,5]: - u[6,5] + r[6,5] <= 0
 mccormick1[6,7]: - u[6,7] + r[6,7] <= 0
 mccormick1[6,8]: - u[6,8] + r[6,8] <= 0
 mccormick1[6,9]: - u[6,9] + r[6,9] <= 0
 mccormick1[7,1]: - u[7,1] + r[7,1] <= 0
 mccormick1[7,2]: - u[7,2] + r[7,2] <= 0
 mccormick1[7,3]: - u[7,3] + r[7,3] <= 0
 mccormick1[7,5]: - u[7,5] + r[7,5] <= 0
 mccormick1[7,6]: - u[7,6] + r[7,6] <= 0
 mccormick1[7,8]: - u[7,8] + r[7,8] <= 0
 mccormick1[7,9]: - u[7,9] + r[7,9] <= 0
 mccormick1[8,0]: - u[8,0] + r[8,0] <= 0
 mccormick1[8,1]: - u[8,1] + r[8,1] <= 0
 mccormick1[8,2]: - u[8,2] + r[8,2] <= 0
 mccormick1[8,3]: - u[8,3] + r[8,3] <= 0
 mccormick1[8,4]: - u[8,4] + r[8,4] <= 0
 mccormick1[8,5]: - u[8,5] + r[8,5] <= 0
 mccormick1[8,6]: - u[8,6] + r[8,6] <= 0
 mccormick1[8,7]: - u[8,7] + r[8,7] <= 0
 mccormick1[8,9]: - u[8,9] + r[8,9] <= 0
 mccormick1[9,1]: - u[9,1] + r[9,1] <= 0
 mccormick1[9,2]: - u[9,2] + r[9,2] <= 0
 mccormick1[9,5]: - u[9,5] + r[9,5] <= 0
 mccormick1[9,6]: - u[9,6] + r[9,6] <= 0
 mccormick1[9,7]: - u[9,7] + r[9,7] <= 0
 mccormick1[9,8]: - u[9,8] + r[9,8] <= 0
 mccormick2[0,1]: - y[0,1] + r[0,1] <= 0
 mccormick2[0,2]: - y[0,2] + r[0,2] <= 0
 mccormick2[0,3]: - y[0,3] + r[0,3] <= 0
 mccormick2[0,4]: - y[0,4] + r[0,4] <= 0
 mccormick2[0,8]: - y[0,8] + r[0,8] <= 0
 mccormick2[1,0]: - y[1,0] + r[1,0] <= 0
 mccormick2[1,2]: - y[1,2] + r[1,2] <= 0
 mccormick2[1,3]: - y[1,3] + r[1,3] <= 0
 mccormick2[1,4]: - y[1,4] + r[1,4] <= 0
 mccormick2[1,5]: - y[1,5] + r[1,5] <= 0
 mccormick2[1,6]: - y[1,6] + r[1,6] <= 0
 mccormick2[1,7]: - y[1,7] + r[1,7] <= 0
 mccormick2[1,8]: - y[1,8] + r[1,8] <= 0
 mccormick2[1,9]: - y[1,9] + r[1,9] <= 0
 mccormick2[2,0]: - y[2,0] + r[2,0] <= 0
 mccormick2[2,1]: - y[2,1] + r[2,1] <= 0
 mccormick2[2,3]: - y[2,3] + r[2,3] <= 0
 mccormick2[2,4]: - y[2,4] + r[2,4] <= 0
 mccormick2[2,5]: - y[2,5] + r[2,5] <= 0
 mccormick2[2,6]: - y[2,6] + r[2,6] <= 0
 mccormick2[2,7]: - y[2,7] + r[2,7] <= 0
 mccormick2[2,8]: - y[2,8] + r[2,8] <= 0
 mccormick2[2,9]: - y[2,9] + r[2,9] <= 0
 mccormick2[3,0]: - y[3,0] + r[3,0] <= 0
 mccormick2[3,1]: - y[3,1] + r[3,1] <= 0
 mccormick2[3,2]: - y[3,2] + r[3,2] <= 0
 mccormick2[3,4]: - y[3,4] + r[3,4] <= 0
 mccormick2[3,5]: - y[3,5] + r[3,5] <= 0
 mccormick2[3,6]: - y[3,6] + r[3,6] <= 0
 mccormick2[3,7]: - y[3,7] + r[3,7] <= 0
 mccormick2[3,8]: - y[3,8] + r[3,8] <= 0
 mccormick2[4,0]: - y[4,0] + r[4,0] <= 0
 mccormick2[4,1]: - y[4,1] + r[4,1] <= 0
 mccormick2[4,2]: - y[4,2] + r[4,2] <= 0
 mccormick2[4,3]: - y[4,3] + r[4,3] <= 0
 mccormick2[4,8]: - y[4,8] + r[4,8] <= 0
 mccormick2[5,1]: - y[5,1] + r[5,1] <= 0
 mccormick2[5,2]: - y[5,2] + r[5,2] <= 0
 mccormick2[5,3]: - y[5,3] + r[5,3] <= 0
 mccormick2[5,6]: - y[5,6] + r[5,6] <= 0
 mccormick2[5,7]: - y[5,7] + r[5,7] <= 0
 mccormick2[5,8]: - y[5,8] + r[5,8] <= 0
 mccormick2[5,9]: - y[5,9] + r[5,9] <= 0
 mccormick2[6,1]: - y[6,1] + r[6,1] <= 0
 mccormick2[6,2]: - y[6,2] + r[6,2] <= 0
 mccormick2[6,3]: - y[6,3] + r[6,3] <= 0
 mccormick2[6,5]: - y[6,5] + r[6,5] <= 0
 mccormick2[6,7]: - y[6,7] + r[6,7] <= 0
 mccormick2[6,8]: - y[6,8] + r[6,8] <= 0
 mccormick2[6,9]: - y[6,9] + r[6,9] <= 0
 mccormick2[7,1]: - y[7,1] + r[7,1] <= 0
 mccormick2[7,2]: - y[7,2] + r[7,2] <= 0
 mccormick2[7,3]: - y[7,3] + r[7,3] <= 0
 mccormick2[7,5]: - y[7,5] + r[7,5] <= 0
 mccormick2[7,6]: - y[7,6] + r[7,6] <= 0
 mccormick2[7,8]: - y[7,8] + r[7,8] <= 0
 mccormick2[7,9]: - y[7,9] + r[7,9] <= 0
 mccormick2[8,0]: - y[8,0] + r[8,0] <= 0
 mccormick2[8,1]: - y[8,1] + r[8,1] <= 0
 mccormick2[8,2]: - y[8,2] + r[8,2] <= 0
 mccormick2[8,3]: - y[8,3] + r[8,3] <= 0
 mccormick2[8,4]: - y[8,4] + r[8,4] <= 0
 mccormick2[8,5]: - y[8,5] + r[8,5] <= 0
 mccormick2[8,6]: - y[8,6] + r[8,6] <= 0
 mccormick2[8,7]: - y[8,7] + r[8,7] <= 0
 mccormick2[8,9]: - y[8,9] + r[8,9] <= 0
 mccormick2[9,1]: - y[9,1] + r[9,1] <= 0
 mccormick2[9,2]: - y[9,2] + r[9,2] <= 0
 mccormick2[9,5]: - y[9,5] + r[9,5] <= 0
 mccormick2[9,6]: - y[9,6] + r[9,6] <= 0
 mccormick2[9,7]: - y[9,7] + r[9,7] <= 0
 mccormick2[9,8]: - y[9,8] + r[9,8] <= 0
 mccormick3[0,1]: - y[0,1] - u[0,1] + r[0,1] >= -1
 mccormick3[0,2]: - y[0,2] - u[0,2] + r[0,2] >= -1
 mccormick3[0,3]: - y[0,3] - u[0,3] + r[0,3] >= -1
 mccormick3[0,4]: - y[0,4] - u[0,4] + r[0,4] >= -1
 mccormick3[0,8]: - y[0,8] - u[0,8] + r[0,8] >= -1
 mccormick3[1,0]: - y[1,0] - u[1,0] + r[1,0] >= -1
 mccormick3[1,2]: - y[1,2] - u[1,2] + r[1,2] >= -1
 mccormick3[1,3]: - y[1,3] - u[1,3] + r[1,3] >= -1
 mccormick3[1,4]: - y[1,4] - u[1,4] + r[1,4] >= -1
 mccormick3[1,5]: - y[1,5] - u[1,5] + r[1,5] >= -1
 mccormick3[1,6]: - y[1,6] - u[1,6] + r[1,6] >= -1
 mccormick3[1,7]: - y[1,7] - u[1,7] + r[1,7] >= -1
 mccormick3[1,8]: - y[1,8] - u[1,8] + r[1,8] >= -1
 mccormick3[1,9]: - y[1,9] - u[1,9] + r[1,9] >= -1
 mccormick3[2,0]: - y[2,0] - u[2,0] + r[2,0] >= -1
 mccormick3[2,1]: - y[2,1] - u[2,1] + r[2,1] >= -1
 mccormick3[2,3]: - y[2,3] - u[2,3] + r[2,3] >= -1
 mccormick3[2,4]: - y[2,4] - u[2,4] + r[2,4] >= -1
 mccormick3[2,5]: - y[2,5] - u[2,5] + r[2,5] >= -1
 mccormick3[2,6]: - y[2,6] - u[2,6] + r[2,6] >= -1
 mccormick3[2,7]: - y[2,7] - u[2,7] + r[2,7] >= -1
 mccormick3[2,8]: - y[2,8] - u[2,8] + r[2,8] >= -1
 mccormick3[2,9]: - y[2,9] - u[2,9] + r[2,9] >= -1
 mccormick3[3,0]: - y[3,0] - u[3,0] + r[3,0] >= -1
 mccormick3[3,1]: - y[3,1] - u[3,1] + r[3,1] >= -1
 mccormick3[3,2]: - y[3,2] - u[3,2] + r[3,2] >= -1
 mccormick3[3,4]: - y[3,4] - u[3,4] + r[3,4] >= -1
 mccormick3[3,5]: - y[3,5] - u[3,5] + r[3,5] >= -1
 mccormick3[3,6]: - y[3,6] - u[3,6] + r[3,6] >= -1
 mccormick3[3,7]: - y[3,7] - u[3,7] + r[3,7] >= -1
 mccormick3[3,8]: - y[3,8] - u[3,8] + r[3,8] >= -1
 mccormick3[4,0]: - y[4,0] - u[4,0] + r[4,0] >= -1
 mccormick3[4,1]: - y[4,1] - u[4,1] + r[4,1] >= -1
 mccormick3[4,2]: - y[4,2] - u[4,2] + r[4,2] >= -1
 mccormick3[4,3]: - y[4,3] - u[4,3] + r[4,3] >= -1
 mccormick3[4,8]: - y[4,8] - u[4,8] + r[4,8] >= -1
 mccormick3[5,1]: - y[5,1] - u[5,1] + r[5,1] >= -1
 mccormick3[5,2]: - y[5,2] - u[5,2] + r[5,2] >= -1
 mccormick3[5,3]: - y[5,3] - u[5,3] + r[5,3] >= -1
 mccormick3[5,6]: - y[5,6] - u[5,6] + r[5,6] >= -1
 mccormick3[5,7]: - y[5,7] - u[5,7] + r[5,7] >= -1
 mccormick3[5,8]: - y[5,8] - u[5,8] + r[5,8] >= -1
 mccormick3[5,9]: - y[5,9] - u[5,9] + r[5,9] >= -1
 mccormick3[6,1]: - y[6,1] - u[6,1] + r[6,1] >= -1
 mccormick3[6,2]: - y[6,2] - u[6,2] + r[6,2] >= -1
 mccormick3[6,3]: - y[6,3] - u[6,3] + r[6,3] >= -1
 mccormick3[6,5]: - y[6,5] - u[6,5] + r[6,5] >= -1
 mccormick3[6,7]: - y[6,7] - u[6,7] + r[6,7] >= -1
 mccormick3[6,8]: - y[6,8] - u[6,8] + r[6,8] >= -1
 mccormick3[6,9]: - y[6,9] - u[6,9] + r[6,9] >= -1
 mccormick3[7,1]: - y[7,1] - u[7,1] + r[7,1] >= -1
 mccormick3[7,2]: - y[7,2] - u[7,2] + r[7,2] >= -1
 mccormick3[7,3]: - y[7,3] - u[7,3] + r[7,3] >= -1
 mccormick3[7,5]: - y[7,5] - u[7,5] + r[7,5] >= -1
 mccormick3[7,6]: - y[7,6] - u[7,6] + r[7,6] >= -1
 mccormick3[7,8]: - y[7,8] - u[7,8] + r[7,8] >= -1
 mccormick3[7,9]: - y[7,9] - u[7,9] + r[7,9] >= -1
 mccormick3[8,0]: - y[8,0] - u[8,0] + r[8,0] >= -1
 mccormick3[8,1]: - y[8,1] - u[8,1] + r[8,1] >= -1
 mccormick3[8,2]: - y[8,2] - u[8,2] + r[8,2] >= -1
 mccormick3[8,3]: - y[8,3] - u[8,3] + r[8,3] >= -1
 mccormick3[8,4]: - y[8,4] - u[8,4] + r[8,4] >= -1
 mccormick3[8,5]: - y[8,5] - u[8,5] + r[8,5] >= -1
 mccormick3[8,6]: - y[8,6] - u[8,6] + r[8,6] >= -1
 mccormick3[8,7]: - y[8,7] - u[8,7] + r[8,7] >= -1
 mccormick3[8,9]: - y[8,9] - u[8,9] + r[8,9] >= -1
 mccormick3[9,1]: - y[9,1] - u[9,1] + r[9,1] >= -1
 mccormick3[9,2]: - y[9,2] - u[9,2] + r[9,2] >= -1
 mccormick3[9,5]: - y[9,5] - u[9,5] + r[9,5] >= -1
 mccormick3[9,6]: - y[9,6] - u[9,6] + r[9,6] >= -1
 mccormick3[9,7]: - y[9,7] - u[9,7] + r[9,7] >= -1
 mccormick3[9,8]: - y[9,8] - u[9,8] + r[9,8] >= -1
Bounds
Binaries
 y[0,1] y[0,2] y[0,3] y[0,4] y[0,8] y[1,0] y[1,2] y[1,3] y[1,4] y[1,5]
 y[1,6] y[1,7] y[1,8] y[1,9] y[2,0] y[2,1] y[2,3] y[2,4] y[2,5] y[2,6]
 y[2,7] y[2,8] y[2,9] y[3,0] y[3,1] y[3,2] y[3,4] y[3,5] y[3,6] y[3,7]
 y[3,8] y[4,0] y[4,1] y[4,2] y[4,3] y[4,8] y[5,1] y[5,2] y[5,3] y[5,6]
 y[5,7] y[5,8] y[5,9] y[6,1] y[6,2] y[6,3] y[6,5] y[6,7] y[6,8] y[6,9]
 y[7,1] y[7,2] y[7,3] y[7,5] y[7,6] y[7,8] y[7,9] y[8,0] y[8,1] y[8,2]
 y[8,3] y[8,4] y[8,5] y[8,6] y[8,7] y[8,9] y[9,1] y[9,2] y[9,5] y[9,6]
 y[9,7] y[9,8] x[0,1] x[0,2] x[0,3] x[0,4] x[0,8] x[1,0] x[1,2] x[1,3]
 x[1,4] x[1,5] x[1,6] x[1,7] x[1,8] x[1,9] x[2,0] x[2,1] x[2,3] x[2,4]
 x[2,5] x[2,6] x[2,7] x[2,8] x[2,9] x[3,0] x[3,1] x[3,2] x[3,4] x[3,5]
 x[3,6] x[3,7] x[3,8] x[4,0] x[4,1] x[4,2] x[4,3] x[4,8] x[5,1] x[5,2]
 x[5,3] x[5,6] x[5,7] x[5,8] x[5,9] x[6,1] x[6,2] x[6,3] x[6,5] x[6,7]
 x[6,8] x[6,9] x[7,1] x[7,2] x[7,3] x[7,5] x[7,6] x[7,8] x[7,9] x[8,0]
 x[8,1] x[8,2] x[8,3] x[8,4] x[8,5] x[8,6] x[8,7] x[8,9] x[9,1] x[9,2]
 x[9,5] x[9,6] x[9,7] x[9,8] u[0,1] u[0,2] u[0,3] u[0,4] u[0,8] u[1,0]
 u[1,2] u[1,3] u[1,4] u[1,5] u[1,6] u[1,7] u[1,8] u[1,9] u[2,0] u[2,1]
 u[2,3] u[2,4] u[2,5] u[2,6] u[2,7] u[2,8] u[2,9] u[3,0] u[3,1] u[3,2]
 u[3,4] u[3,5] u[3,6] u[3,7] u[3,8] u[4,0] u[4,1] u[4,2] u[4,3] u[4,8]
 u[5,1] u[5,2] u[5,3] u[5,6] u[5,7] u[5,8] u[5,9] u[6,1] u[6,2] u[6,3]
 u[6,5] u[6,7] u[6,8] u[6,9] u[7,1] u[7,2] u[7,3] u[7,5] u[7,6] u[7,8]
 u[7,9] u[8,0] u[8,1] u[8,2] u[8,3] u[8,4] u[8,5] u[8,6] u[8,7] u[8,9]
 u[9,1] u[9,2] u[9,5] u[9,6] u[9,7] u[9,8] r[0,1] r[0,2] r[0,3] r[0,4]
 r[0,8] r[1,0] r[1,2] r[1,3] r[1,4] r[1,5] r[1,6] r[1,7] r[1,8] r[1,9]
 r[2,0] r[2,1] r[2,3] r[2,4] r[2,5] r[2,6] r[2,7] r[2,8] r[2,9] r[3,0]
 r[3,1] r[3,2] r[3,4] r[3,5] r[3,6] r[3,7] r[3,8] r[4,0] r[4,1] r[4,2]
 r[4,3] r[4,8] r[5,1] r[5,2] r[5,3] r[5,6] r[5,7] r[5,8] r[5,9] r[6,1]
 r[6,2] r[6,3] r[6,5] r[6,7] r[6,8] r[6,9] r[7,1] r[7,2] r[7,3] r[7,5]
 r[7,6] r[7,8] r[7,9] r[8,0] r[8,1] r[8,2] r[8,3] r[8,4] r[8,5] r[8,6]
 r[8,7] r[8,9] r[9,1] r[9,2] r[9,5] r[9,6] r[9,7] r[9,8]
End
