instances/shortest_path/discrete_knapsack_uncertainty/nohadani_10_10.kp
99431
305

[1.9826672250658195 3.732450109458323 4.222697136478882 2.8315560672525004 2.21239449764475 3.8445388717563196 1.904371221646467 3.9781730477993182 3.3893306696083423 2.53760996687852 2.377082850491139 1.6407270757760937 0.6407247369992066 0.6633056728835581 1.422868977300623 0.1754204043663697 3.01285053836804 2.840522668749169 4.230289836979703 0.5294980705414338 1.1558826568222267 1.1906948638361474 0.062999355082345 4.064624044269787 1.863308358168859 3.434055567425684 2.9492431070987366 1.3547232209926114 4.097323394648695 3.822613398190138 2.4725930047851867 2.3220637805256383 1.4537778133434058 3.559135045212628 3.0484099794469266 2.3802740497343833 0.7355215141165827 0.17362151312346674 4.028209121851464 0.5923419999953342 0.1926328333946872 1.9126583292582429 4.073804961399177 0.8709409231942434 1.4765040672866032 3.06617836539484 3.0382244388943596 3.4893779040409125 1.362330990310426 2.7023228346674957 3.91712531016296 0.8889714811113311 3.137443923715645 0.2954785881386906 0.35283394811314006 4.062745068577446 2.6140718662208386 0.504313456682763 2.199791815386987 4.175982163995408 3.3846459037792487 2.2255684838455725 2.6224762670886053 3.0060069451898714 3.728894712873557 0.6731713823517499 3.716548284896475 2.11464752333883 1.5675565110060512 0.11945127794836286 0.23139553251244174 2.465106505077307]

[36 97 39 68 45 66 50 36 94 19 48 72 17 17 29 37 98 25 10 55 46 24 29 3 49 5 31 80 58 80 50 80 52 46 61 34 37 69 97 27 44 14 99 54 12 75 18 46 56 1 23 5 58 45 85 56 26 7 81 23 53 79 32 39 96 77 69 19 77 54 6 14]
